<?xml version = "1.0" standalone="yes"?>
<!-- This file has been generated by DOcplex version 2.23.222  -->
<CPLEXSolution version="1.0">
 <header
   problemName="CVRP"
   objectiveValue="12636"
  />
 <variables>
  <variable name="x_0_1" index="0" value="1.00000"/>
  <variable name="x_0_2" index="1" value="1.00000"/>
  <variable name="x_0_3" index="2" value="1.00000"/>
  <variable name="x_0_4" index="3" value="1.00000"/>
  <variable name="x_0_6" index="5" value="1.00000"/>
  <variable name="x_0_7" index="6" value="1.00000"/>
  <variable name="x_0_8" index="7" value="1.00000"/>
  <variable name="x_0_9" index="8" value="1.00000"/>
  <variable name="x_0_10" index="9" value="1.00000"/>
  <variable name="x_0_12" index="11" value="1.00000"/>
  <variable name="x_0_13" index="12" value="1.00000"/>
  <variable name="x_0_15" index="14" value="1.00000"/>
  <variable name="x_0_17" index="16" value="1.00000"/>
  <variable name="x_1_14" index="30" value="1.00000"/>
  <variable name="x_2_0" index="34" value="1.00000"/>
  <variable name="x_3_0" index="51" value="1.00000"/>
  <variable name="x_4_0" index="68" value="1.00000"/>
  <variable name="x_5_16" index="100" value="1.00000"/>
  <variable name="x_6_0" index="102" value="1.00000"/>
  <variable name="x_7_0" index="119" value="1.00000"/>
  <variable name="x_8_0" index="136" value="1.00000"/>
  <variable name="x_9_0" index="153" value="1.00000"/>
  <variable name="x_10_0" index="170" value="1.00000"/>
  <variable name="x_11_0" index="187" value="1.00000"/>
  <variable name="x_12_5" index="209" value="1.00000"/>
  <variable name="x_13_0" index="221" value="1.00000"/>
  <variable name="x_14_0" index="238" value="1.00000"/>
  <variable name="x_15_0" index="255" value="1.00000"/>
  <variable name="x_16_0" index="272" value="1.00000"/>
  <variable name="x_17_11" index="300" value="1.00000"/>
  <variable name="u_1" index="306" value="3.00000"/>
  <variable name="u_2" index="307" value="13.00000"/>
  <variable name="u_3" index="308" value="22.00000"/>
  <variable name="u_4" index="309" value="16.00000"/>
  <variable name="u_5" index="310" value="19.00000"/>
  <variable name="u_6" index="311" value="22.00000"/>
  <variable name="u_7" index="312" value="22.00000"/>
  <variable name="u_8" index="313" value="22.00000"/>
  <variable name="u_9" index="314" value="13.00000"/>
  <variable name="u_10" index="315" value="22.00000"/>
  <variable name="u_11" index="316" value="22.00000"/>
  <variable name="u_12" index="317" value="13.00000"/>
  <variable name="u_13" index="318" value="21.00000"/>
  <variable name="u_14" index="319" value="21.00000"/>
  <variable name="u_15" index="320" value="19.00000"/>
  <variable name="u_16" index="321" value="22.00000"/>
  <variable name="u_17" index="322" value="21.00000"/>
 </variables>
</CPLEXSolution>
